NAME: SCAIL170_3233_16
COMMENT:Generated as the SCAIL100 dataset for the INCOM2024 Data Challenge
TYPE: Multi-Depot CVRP
DEPOTS: 3
DIMENSION: 173
EDGE_WEIGHT_TYPE: EUC_2D
CAPACITY: 75

NODE_COORD_SECTION 
1    682  145 
2    874  673 
3    291  426 
4    217  974 
5    209  991 
6    592  335 
7    137  993 
8    719  482 
9    251  963 
10   830  883 
11   133  699 
12   602  357 
13   175  961 
14   247  858 
15   224  890 
16   998  787 
17   229  950 
18   108  770 
19   213  981 
20   578  310 
21   617  259 
22   573  204 
23   110  815 
24   216  888 
25   373  981 
26   471  266 
27   648  289 
28   640  379 
29   675  346 
30   504  336 
31   279  172 
32   612  317 
33   62   805 
34   250  929 
35   604  322 
36   961  697 
37   361  991 
38   14   801 
39   82   890 
40   882  714 
41   246  989 
42   580  349 
43   21   715 
44   682  378 
45   392  972 
46   142  742 
47   108  774 
48   608  230 
49   661  385 
50   154  844 
51   906  802 
52   812  911 
53   626  357 
54   575  373 
55   538  363 
56   43   939 
57   96   832 
58   994  750 
59   578  417 
60   39   816 
61   234  946 
62   909  599 
63   957  721 
64   501  264 
65   255  886 
66   976  829 
67   566  363 
68   71   805 
69   713  162 
70   826  695 
71   43   770 
72   550  412 
73   921  685 
74   20   814 
75   972  788 
76   443  191 
77   23   810 
78   525  282 
79   10   730 
80   959  751 
81   244  970 
82   141  841 
83   923  758 
84   505  263 
85   699  357 
86   33   835 
87   97   761 
88   856  789 
89   953  767 
90   90   740 
91   852  636 
92   559  209 
93   276  952 
94   171  823 
95   437  222 
96   602  326 
97   139  934 
98   956  766 
99   97   818 
100  824  701 
101  405  919 
102  167  974 
103  225  979 
104  344  960 
105  245  957 
106  742  323 
107  663  268 
108  920  802 
109  956  713 
110  572  296 
111  811  477 
112  195  910 
113  188  807 
114  99   848 
115  940  863 
116  53   835 
117  672  435 
118  671  192 
119  128  838 
120  73   856 
121  13   646 
122  551  291 
123  580  446 
124  797  572 
125  709  340 
126  689  371 
127  6    887 
128  87   821 
129  126  867 
130  496  269 
131  976  821 
132  958  879 
133  83   808 
134  28   698 
135  507  168 
136  31   724 
137  991  720 
138  734  195 
139  343  966 
140  275  703 
141  16   809 
142  514  393 
143  675  255 
144  317  611 
145  163  855 
146  618  459 
147  29   894 
148  237  941 
149  690  392 
150  284  873 
151  974  761 
152  545  346 
153  177  963 
154  536  288 
155  29   866 
156  238  979 
157  182  596 
158  84   866 
159  912  795 
160  172  921 
161  518  347 
162  936  771 
163  22   808 
164  278  987 
165  17   684 
166  615  279 
167  116  925 
168  22   762 
169  181  990 
170  673  241 
171  616  317 
172  171  998 
173  513  341 

DEMAND_SECTION
1    0   
2    0   
3    0   
4    9   
5    9   
6    10  
7    7   
8    6   
9    10  
10   7   
11   5   
12   10  
13   8   
14   5   
15   6   
16   10  
17   5   
18   5   
19   10  
20   10  
21   7   
22   10  
23   9   
24   6   
25   8   
26   10  
27   9   
28   8   
29   5   
30   6   
31   6   
32   5   
33   5   
34   5   
35   7   
36   9   
37   5   
38   9   
39   8   
40   8   
41   7   
42   5   
43   7   
44   9   
45   10  
46   6   
47   9   
48   6   
49   10  
50   10  
51   9   
52   8   
53   6   
54   10  
55   5   
56   6   
57   9   
58   8   
59   9   
60   8   
61   9   
62   6   
63   6   
64   7   
65   6   
66   10  
67   8   
68   5   
69   8   
70   10  
71   8   
72   9   
73   6   
74   7   
75   6   
76   7   
77   8   
78   7   
79   6   
80   7   
81   6   
82   9   
83   10  
84   8   
85   9   
86   10  
87   10  
88   10  
89   8   
90   6   
91   6   
92   10  
93   10  
94   9   
95   8   
96   8   
97   5   
98   6   
99   8   
100  8   
101  9   
102  6   
103  7   
104  9   
105  5   
106  8   
107  9   
108  7   
109  7   
110  5   
111  6   
112  8   
113  9   
114  8   
115  10  
116  9   
117  8   
118  10  
119  10  
120  8   
121  7   
122  10  
123  6   
124  5   
125  5   
126  7   
127  5   
128  5   
129  6   
130  10  
131  9   
132  10  
133  7   
134  8   
135  5   
136  8   
137  6   
138  8   
139  6   
140  7   
141  5   
142  5   
143  7   
144  10  
145  5   
146  5   
147  6   
148  10  
149  6   
150  10  
151  7   
152  10  
153  5   
154  6   
155  6   
156  6   
157  6   
158  9   
159  9   
160  6   
161  7   
162  6   
163  7   
164  8   
165  10  
166  9   
167  10  
168  9   
169  9   
170  5   
171  6   
172  7   
173  7   

DEPOT_SECTION
1    682  145 
2    874  673 
3    291  426 
-1
EOF
